phon eigenvectors optimise
broaden 1.0

output freq text /home/jason/disorder2/pbte/ald/8x/freq.gout
output xyz

#--------------------------------------------------------------------------
#-------------------------PbTe---------------------------------------------
#--------------------------------------------------------------------------
buck
Pb core Pb core   84203.2  0.0754   61.01  0.0000  16.0000 0 0 0
buck
Pb core Te core   92131.5  0.2552  585.70  0.0000  16.0000 0 0 0
buck
Te core Te core 1773611.7  0.2565    0.61  0.0000  16.0000 0 0 0
coulomb
Pb core Pb core 1.0
coulomb
Pb core Te core 1.0
coulomb
Te core Te core 1.0


#--------------------------------------------------------------------------
#------------------------STRUCTURE-----------------------------------------
#--------------------------------------------------------------------------
cell
6.40000  6.40000  6.40000  90.000000 90.000000 90.000000 1 1 1 0 0 0
fractional
Pb core  0.000000   0.000000   0.000000    0.666  0 0 0
Te core  0.500000   0.000000   0.000000   -0.666  0 0 0

kpoints 1
0.0 0.0 0.0
