phon c6 optimise
broaden 1.0

output freq text /home/jason/disorder/pbte/gulp/freq.gout
output xyz

#--------------------------------------------------------------------------
#-------------------------PbTe---------------------------------------------
#--------------------------------------------------------------------------
buck
Pb core Pb core   84203.2  0.0754   61.01  0.0000  16.0000 0 0 0
buck
Pb core Te core   92131.5  0.2552  585.70  0.0000  16.0000 0 0 0
buck
Te core Te core 1773611.7  0.2565    0.61  0.0000  16.0000 0 0 0
coulomb
Pb core Pb core 1.0
coulomb
Pb core Te core 1.0
coulomb
Te core Te core 1.0

species 2
Pb 0.666
Te -0.666

#--------------------------------------------------------------------------
#------------------------STRUCTURE-----------------------------------------
#--------------------------------------------------------------------------
cell
6.508965 6.508965 6.508965 90.000000 90.000000 90.000000 0 0 0 0 0 0
fractional
Pb core  0.000000   0.000000   0.000000 0 1 1 1 
Te core  0.500000   0.000000   0.000000 0 1 1 1 

#kpoints 1
#0.0 0.0 0.0

dispersion 1 11
0.0 0.0 0.0 to 0.5 0.5 0.0 
output phon kpath
