molecule compare phon dispersion optimise thermalconductivity
maxcyc 10000
temperature 50000.0
output freq text freq.gout
output xyz
output movie
output lammps

###########################################################################
#------------------------OLPS----------------------------------------------
###########################################################################

library nodump olps

#--------------------------------------------------------------------------
#x0
#--------------------------------------------------------------------------
cell 100.0 100.0 100.0 90.00 90.0 90.00 0 0 0 0 0 0
cart
C1 core 50.993000 53.067000 57.215000 0 1 1 1 
C1 core 50.645000 52.104000 55.952000 0 1 1 1 
C1 core 49.467000 51.210000 56.146000 0 1 1 1 
C1 core 48.807000 51.071000 57.351000 0 1 1 1 
C1 core 49.125000 51.941000 58.494000 0 1 1 1 
C1 core 50.086000 52.915000 58.390000 0 1 1 1 
C1 core 49.825000 54.233000 58.917000 0 1 1 1 
C1 core 50.386000 55.217000 58.014000 0 1 1 1 
C1 core 50.997000 54.516000 56.906000 0 1 1 1 
C1 core 50.885000 55.042000 55.643000 0 1 1 1 
C1 core 50.555000 54.169000 54.496000 0 1 1 1 
C1 core 50.377000 52.815000 54.673000 0 1 1 1 
C1 core 49.271000 52.162000 54.016000 0 1 1 1 
C1 core 48.709000 51.186000 54.923000 0 1 1 1 
C1 core 47.346000 50.942000 54.912000 0 1 1 1 
C1 core 46.656000 50.760000 56.170000 0 1 1 1 
C1 core 47.371000 50.842000 57.357000 0 1 1 1 
C1 core 46.800000 51.544000 58.495000 0 1 1 1 
C1 core 47.874000 52.229000 59.187000 0 1 1 1 
C1 core 47.655000 53.482000 59.743000 0 1 1 1 
C1 core 48.647000 54.516000 59.606000 0 1 1 1 
C1 core 47.981000 55.787000 59.415000 0 1 1 1 
C1 core 48.521000 56.724000 58.548000 0 1 1 1 
C1 core 49.754000 56.445000 57.836000 0 1 1 1 
C1 core 49.659000 56.997000 56.517000 0 1 1 1 
C1 core 50.198000 56.303000 55.433000 0 1 1 1 
C1 core 49.466000 56.225000 54.187000 0 1 1 1 
C1 core 49.688000 54.918000 53.619000 0 1 1 1 
C1 core 48.654000 54.267000 52.941000 0 1 1 1 
C1 core 48.444000 52.864000 53.148000 0 1 1 1 
C1 core 47.010000 52.621000 53.150000 0 1 1 1 
C1 core 46.474000 51.676000 54.016000 0 1 1 1 
C1 core 45.243000 51.957000 54.727000 0 1 1 1 
C1 core 45.352000 51.401000 56.058000 0 1 1 1 
C1 core 44.807000 52.070000 57.137000 0 1 1 1 
C1 core 45.549000 52.153000 58.386000 0 1 1 1 
C1 core 45.320000 53.457000 58.959000 0 1 1 1 
C1 core 46.353000 54.118000 59.629000 0 1 1 1 
C1 core 46.553000 55.540000 59.427000 0 1 1 1 
C1 core 45.715000 56.245000 58.567000 0 1 1 1 
C1 core 46.282000 57.231000 57.657000 0 1 1 1 
C1 core 47.655000 57.467000 57.650000 0 1 1 1 
C1 core 48.361000 57.633000 56.391000 0 1 1 1 
C1 core 47.662000 57.557000 55.195000 0 1 1 1 
C1 core 48.225000 56.849000 54.068000 0 1 1 1 
C1 core 47.143000 56.169000 53.366000 0 1 1 1 
C1 core 47.356000 54.921000 52.816000 0 1 1 1 
C1 core 46.345000 53.888000 52.951000 0 1 1 1 
C1 core 45.159000 54.161000 53.628000 0 1 1 1 
C1 core 44.595000 53.177000 54.534000 0 1 1 1 
C1 core 44.024000 53.883000 55.667000 0 1 1 1 
C1 core 44.135000 53.339000 56.939000 0 1 1 1 
C1 core 44.448000 54.200000 58.070000 0 1 1 1 
C1 core 44.650000 55.552000 57.869000 0 1 1 1 
C1 core 44.542000 56.122000 56.534000 0 1 1 1 
C1 core 44.234000 55.301000 55.464000 0 1 1 1 
C1 core 44.934000 55.473000 54.201000 0 1 1 1 
C1 core 45.908000 56.455000 54.067000 0 1 1 1 
C1 core 46.230000 57.313000 55.208000 0 1 1 1 
C1 core 45.552000 57.150000 56.411000 0 1 1 1 
kpoint
0.0 0.0 0.0
