phon dispersion eigenvectors

units freq rad

#########################################################################################
#------------------------SW-------------------------------------------------------
#########################################################################################
#2-body term
sw2
Si core Si core 15.2781 2.0951 11.6032 0.0000 3.7712
#3-body term
sw3
Si core Si core Si core 45.5120 109.4712 2.5141 2.5141 3.7712 3.7712 6.1583

#########################################################################################
#------------------------STRUCTURE-------------------------------------------------------
#########################################################################################

cell 21.156 21.156 21.156 90.0 90.0 90.0 1 1 1 1 1 1
cartesian
Si core 2.8855       10.597       2.7274 0 1 1 1 
Si core 13.511       13.525       7.5751 0 1 1 1 
Si core 12.525      0.89383         4.48 0 1 1 1 
Si core 12.609       3.9364        10.45 0 1 1 1 
Si core 6.9319       10.061       3.1638 0 1 1 1 
Si core 1.3735      4.9218      6.5675 0 1 1 1 
Si core 6.0024        18.89       15.814 0 1 1 1 
Si core 16.963        6.429       10.289 0 1 1 1 
Si core 3.1039      8.2679      6.0358 0 1 1 1 
Si core 17.696       19.913       20.464 0 1 1 1 
Si core 0.34       5.7158       20.028 0 1 1 1 
Si core 3.2106      3.8907      5.4987 0 1 1 1 
Si core 7.695       14.448       5.5551 0 1 1 1 
Si core 19.617       11.262       8.5417 0 1 1 1 
Si core 11.664       5.8651       16.885 0 1 1 1 
Si core 3.379       20.714       17.727 0 1 1 1 
Si core 20.688            0        18.28 0 1 1 1 
Si core 1.8088       12.545       7.8068 0 1 1 1 
Si core 2.8683        5.946       13.637 0 1 1 1 
Si core 19.691        9.283       11.075 0 1 1 1 
Si core 8.9852       11.646       10.389 0 1 1 1 
Si core 18.367        3.092       15.337 0 1 1 1 
Si core 5.5071        14.29       6.4625 0 1 1 1 
Si core 13.123       3.4244       18.707 0 1 1 1 
Si core 5.1164       9.3953       14.614 0 1 1 1 
Si core 10.384       15.124       11.653 0 1 1 1 
Si core 18.826       5.7181       16.341 0 1 1 1 
Si core 16.353       11.284       5.8458 0 1 1 1 
Si core 8.4721       19.393       9.7264 0 1 1 1 
Si core 9.3695    0.032503      6.0137 0 1 1 1 
Si core 14.728       11.377       3.8359 0 1 1 1 
Si core 6.8194       12.713       10.227 0 1 1 1 
Si core 15.518       11.046        15.78 0 1 1 1 
Si core 20.475       18.792       17.715 0 1 1 1 
Si core 17.939       1.9555       18.642 0 1 1 1 
Si core 19.161       13.919       7.1987 0 1 1 1 
Si core 14.828       8.0856       7.7169 0 1 1 1 
Si core 2.7248      1.6513      4.9556 0 1 1 1 
Si core 8.5304       15.118       20.557 0 1 1 1 
Si core 3.0638       14.481       16.319 0 1 1 1 
Si core 14.381       10.262       19.944 0 1 1 1 
Si core 8.4793       8.1924       17.131 0 1 1 1 
Si core 1.9662       5.0292       18.332 0 1 1 1 
Si core 2.7401       13.206       11.273 0 1 1 1 
Si core 14.166        6.259       15.558 0 1 1 1 
Si core 16.463       7.3775       12.401 0 1 1 1 
Si core 10.145       6.5438       8.6813 0 1 1 1 
Si core 8.326       15.001         12.8 0 1 1 1 
Si core 16.783       2.8593       20.754 0 1 1 1 
Si core 19.965       6.2019       13.366 0 1 1 1 
Si core 19.682       16.397       15.122 0 1 1 1 
Si core 17.411       3.4935       3.9548 0 1 1 1 
Si core 9.0117       20.615       18.362 0 1 1 1 
Si core 20.278       15.575       4.4721 0 1 1 1 
Si core 4.1974       1.7706       10.056 0 1 1 1 
Si core 0.41085      0.9815      5.4233 0 1 1 1 
Si core 19.13       6.7176       7.7281 0 1 1 1 
Si core 0.075152       17.394       10.393 0 1 1 1 
Si core 20.812       2.2781       3.5734 0 1 1 1 
Si core 3.9602       8.2753        12.63 0 1 1 1 
Si core 9.7186        18.58       17.412 0 1 1 1 
Si core 7.9943      0.43484       11.224 0 1 1 1 
Si core 8.1902      9.2217      7.8352 0 1 1 1 
Si core 2.6415       15.329       14.057 0 1 1 1 
Si core 0.46731       8.5378       20.695 0 1 1 1 
Si core 4.226       14.519       12.552 0 1 1 1 
Si core 15.45       8.0131       18.002 0 1 1 1 
Si core 8.8953       20.116      0.58614 0 1 1 1 
Si core 20.109       10.248       2.0267 0 1 1 1 
Si core 1.9673      1.5581      8.8399 0 1 1 1 
Si core 5.7       11.638       21.101 0 1 1 1 
Si core 12.85       12.793       11.328 0 1 1 1 
Si core 11.799       14.828       1.9378 0 1 1 1 
Si core 1.9434       19.683       7.4801 0 1 1 1 
Si core 0.4928       1.4893       15.765 0 1 1 1 
Si core 6.8678       20.523        19.35 0 1 1 1 
Si core 3.7702       18.074       12.611 0 1 1 1 
Si core 5.2236       19.137       9.2435 0 1 1 1 
Si core 0.22644      9.8256      5.5715 0 1 1 1 
Si core 18.948       13.517       1.1922 0 1 1 1 
Si core 10.713       13.472       9.9442 0 1 1 1 
Si core 20.296       1.5717       7.3135 0 1 1 1 
Si core 14.855       1.9413        6.551 0 1 1 1 
Si core 20.382       5.5692       11.153 0 1 1 1 
Si core 10.055        2.229       20.203 0 1 1 1 
Si core 18.565       12.803       16.274 0 1 1 1 
Si core 18.566       13.052        10.11 0 1 1 1 
Si core 10.137       9.4716       15.671 0 1 1 1 
Si core 6.2537      5.5837      3.2358 0 1 1 1 
Si core 18.66       5.9967       5.4483 0 1 1 1 
Si core 17.052       9.4201       14.686 0 1 1 1 
Si core 0.80431      9.4092      3.1861 0 1 1 1 
Si core 5.3204       4.174      6.5135 0 1 1 1 
Si core 12.065       12.907      0.44252 0 1 1 1 
Si core 10.991       20.068       9.7197 0 1 1 1 
Si core 12.527       20.434       7.9762 0 1 1 1 
Si core 14.968        4.608       20.668 0 1 1 1 
Si core 0.95605       1.968    0.080629 0 1 1 1 
Si core 18.674       10.458       16.343 0 1 1 1 
Si core 7.065      2.8308      5.0547 0 1 1 1 
Si core 10.916       9.5619       1.8149 0 1 1 1 
Si core 7.307       4.5991       15.675 0 1 1 1 
Si core 1.6745       18.207       5.5578 0 1 1 1 
Si core 8.6611       13.752        8.106 0 1 1 1 
Si core 8.579      4.0143      6.6077 0 1 1 1 
Si core 13.219       1.4867       8.1959 0 1 1 1 
Si core 10.914        2.588        11.46 0 1 1 1 
Si core 18.152       18.347       12.259 0 1 1 1 
Si core 15.259       15.201       7.6932 0 1 1 1 
Si core 14.674       4.6433       17.328 0 1 1 1 
Si core 0.609      0.12208       10.442 0 1 1 1 
Si core 3.9461       6.1111       19.415 0 1 1 1 
Si core 14.66        19.03        16.04 0 1 1 1 
Si core 13.006       17.623       10.768 0 1 1 1 
Si core 4.4863       1.0888       20.794 0 1 1 1 
Si core 10.692       9.8523       13.302 0 1 1 1 
Si core 0.64088       16.207       6.2722 0 1 1 1 
Si core 2.7425      7.1585      3.8361 0 1 1 1 
Si core 2.3599        7.986       17.343 0 1 1 1 
Si core 3.1888       13.342       20.346 0 1 1 1 
Si core 10.376       17.056       14.222 0 1 1 1 
Si core 0.39082       10.758       11.277 0 1 1 1 
Si core 14.849       14.867       16.023 0 1 1 1 
Si core 0.22399       8.099      7.3938 0 1 1 1 
Si core 15.977       20.686       7.0011 0 1 1 1 
Si core 17.931       4.3827       18.113 0 1 1 1 
Si core 5.488       3.6437       13.292 0 1 1 1 
Si core 19.122       4.2945       8.1435 0 1 1 1 
Si core 4.5374     0.78727      3.4584 0 1 1 1 
Si core 6.6866       17.994       11.004 0 1 1 1 
Si core 12.504       13.018       5.4371 0 1 1 1 
Si core 19.808       11.699       19.572 0 1 1 1 
Si core 20.94       14.999       12.782 0 1 1 1 
Si core 16.431       13.588       4.2889 0 1 1 1 
Si core 14.74       5.5852       9.6353 0 1 1 1 
Si core 2.3936       2.6507       17.646 0 1 1 1 
Si core 7.4314      8.3081      1.0358 0 1 1 1 
Si core 21.018       20.451        8.243 0 1 1 1 
Si core 16.072       3.8842        13.25 0 1 1 1 
Si core 0.33383       13.326       11.067 0 1 1 1 
Si core 12.672       20.101       16.785 0 1 1 1 
Si core 15.785       8.6027       21.039 0 1 1 1 
Si core 5.281       15.009       17.387 0 1 1 1 
Si core 13.95       3.9225       5.4116 0 1 1 1 
Si core 16.223       5.4462       4.9578 0 1 1 1 
Si core 17.495       5.7583       13.959 0 1 1 1 
Si core 6.8322       18.809       13.351 0 1 1 1 
Si core 13.882       12.123       14.305 0 1 1 1 
Si core 20.304       4.0817       5.3709 0 1 1 1 
Si core 3.8484       14.087        4.823 0 1 1 1 
Si core 3.2365     0.52686      6.9805 0 1 1 1 
Si core 20.48       19.521        2.617 0 1 1 1 
Si core 1.7888       14.074       5.9265 0 1 1 1 
Si core 5.6394       12.545       8.1621 0 1 1 1 
Si core 5.4582      7.1967      1.5116 0 1 1 1 
Si core 10.691       5.7741       12.912 0 1 1 1 
Si core 8.6565       20.205       13.002 0 1 1 1 
Si core 17.695        19.28        10.01 0 1 1 1 
Si core 3.3582       6.0028       16.163 0 1 1 1 
Si core 10.668       16.621       5.2319 0 1 1 1 
Si core 6.8763       17.321       7.8843 0 1 1 1 
Si core 17.114       16.932       18.861 0 1 1 1 
Si core 3.0484       3.4079       13.746 0 1 1 1 
Si core 16.395       12.049       12.907 0 1 1 1 
Si core 3.1179      9.7434      9.8673 0 1 1 1 
Si core 19.769       18.503       8.8627 0 1 1 1 
Si core 2.9645       18.502       9.2608 0 1 1 1 
Si core 9.3101       11.703       12.761 0 1 1 1 
Si core 18.891       7.1834       2.1793 0 1 1 1 
Si core 7.6737        20.19       4.2219 0 1 1 1 
Si core 5.2489       3.3457       18.658 0 1 1 1 
Si core 15.989         2.98       16.224 0 1 1 1 
Si core 20.457       13.854       15.311 0 1 1 1 
Si core 1.2254       17.037       12.861 0 1 1 1 
Si core 1.1585       13.185       2.2941 0 1 1 1 
Si core 11.945       5.0197       8.3883 0 1 1 1 
Si core 11.144       3.7721       14.539 0 1 1 1 
Si core 19.833       2.6714     0.099492 0 1 1 1 
Si core 2.6918       20.707       2.3003 0 1 1 1 
Si core 15.375         13.5       1.9628 0 1 1 1 
Si core 6.7349       18.209       19.889 0 1 1 1 
Si core 9.8792      2.7091      2.1025 0 1 1 1 
Si core 0.99534       13.491       17.029 0 1 1 1 
Si core 0.99723       3.9731       10.658 0 1 1 1 
Si core 16.606       9.8303       11.886 0 1 1 1 
Si core 0.77396        10.36       8.7384 0 1 1 1 
Si core 10.074       15.118       18.762 0 1 1 1 
Si core 16.657       19.274       3.0624 0 1 1 1 
Si core 10.027       21.094       14.697 0 1 1 1 
Si core 18       14.947       13.586 0 1 1 1 
Si core 15.955       15.747       12.706 0 1 1 1 
Si core 14.995      0.44439       4.4684 0 1 1 1 
Si core 11.277       19.198       3.1922 0 1 1 1 
Si core 14.882       1.3328       21.112 0 1 1 1 
Si core 20.64        15.14         20.8 0 1 1 1 
Si core 19.361       1.2864       16.599 0 1 1 1 
Si core 19.348       16.439       7.4737 0 1 1 1 
Si core 20.63       7.5168       9.8916 0 1 1 1 
Si core 13.952       11.512      0.82919 0 1 1 1 
Si core 11.267       8.3391       9.7352 0 1 1 1 
Si core 9.0947       4.0287       11.877 0 1 1 1 
Si core 2.4687       2.0239       11.872 0 1 1 1 
Si core 2.3291       21.016       15.569 0 1 1 1 
Si core 16.218       5.2768       7.4305 0 1 1 1 
Si core 6.4927      0.08565       16.252 0 1 1 1 
Si core 16.496       7.3081       15.757 0 1 1 1 
Si core 17.467       8.9946       6.0424 0 1 1 1 
Si core 12.557        1.294       16.212 0 1 1 1 
Si core 20.61       5.5922       2.9307 0 1 1 1 
Si core 12.977       10.549       12.751 0 1 1 1 
Si core 1.8218      7.7351      1.4304 0 1 1 1 
Si core 7.8583       16.811       14.263 0 1 1 1 
Si core 12.126       20.129      0.94778 0 1 1 1 
Si core 11.409       3.3951       17.019 0 1 1 1 
Si core 13.048       11.593       9.0886 0 1 1 1 
Si core 3.1545       3.1799       20.303 0 1 1 1 
Si core 9.1751       8.572      3.1653 0 1 1 1 
Si core 19.258       15.607       18.858 0 1 1 1 
Si core 16.591       19.704       18.389 0 1 1 1 
Si core 12.951       8.2428       14.347 0 1 1 1 
Si core 7.161       9.8759       20.446 0 1 1 1 
Si core 0.5372      6.8022      4.9385 0 1 1 1 
Si core 12.449       9.2797        19.06 0 1 1 1 
Si core 6.8964     0.43957     0.32566 0 1 1 1 
Si core 18.593       13.404       18.504 0 1 1 1 
Si core 7.7702       19.752       7.3759 0 1 1 1 
Si core 10.526       14.385       6.1388 0 1 1 1 
Si core 8.1139       16.707       2.2417 0 1 1 1 
Si core 4.5035       18.827       1.9785 0 1 1 1 
Si core 13.821       4.2928       14.182 0 1 1 1 
Si core 6.7135      6.2421      5.5577 0 1 1 1 
Si core 8.0832       13.244       14.368 0 1 1 1 
Si core 10.983        19.09       15.507 0 1 1 1 
Si core 9.4874       20.811       2.7952 0 1 1 1 
Si core 1.6154       18.707       3.1261 0 1 1 1 
Si core 18.688       7.6446        17.93 0 1 1 1 
Si core 10.534       21.072       20.166 0 1 1 1 
Si core 9.5756       12.095       5.4654 0 1 1 1 
Si core 13.053       10.651       5.8372 0 1 1 1 
Si core 14.069       7.4124       12.337 0 1 1 1 
Si core 18.035       10.333       20.503 0 1 1 1 
Si core 1.4854       8.8306       12.547 0 1 1 1 
Si core 13.876       13.466       17.758 0 1 1 1 
Si core 10.081       11.786       1.1334 0 1 1 1 
Si core 3.9468       15.453       2.7982 0 1 1 1 
Si core 16.213       20.548      0.97948 0 1 1 1 
Si core 7.9617       4.7319       18.077 0 1 1 1 
Si core 13.443       8.6696       4.4658 0 1 1 1 
Si core 18.542       16.158       1.3743 0 1 1 1 
Si core 16.583       7.7899       2.7196 0 1 1 1 
Si core 12.391       16.177       12.631 0 1 1 1 
Si core 17.869        5.277      0.77663 0 1 1 1 
Si core 11.151       13.228       13.203 0 1 1 1 
Si core 10.35       11.831       18.517 0 1 1 1 
Si core 12.902       16.415      0.60804 0 1 1 1 
Si core 13.912       9.3209        16.31 0 1 1 1 
Si core 4.7804       5.5688       10.333 0 1 1 1 
Si core 10.268        8.301        5.294 0 1 1 1 
Si core 15.634       7.8023       4.9474 0 1 1 1 
Si core 15.871       20.956       15.453 0 1 1 1 
Si core 12.106       6.7396       5.0114 0 1 1 1 
Si core 19.331      0.45316       20.183 0 1 1 1 
Si core 9.6591       6.3899       18.128 0 1 1 1 
Si core 9.3037      1.8679      7.6628 0 1 1 1 
Si core 20.304       3.9256       14.107 0 1 1 1 
Si core 17.273       1.7434       13.414 0 1 1 1 
Si core 18.302       15.422       9.6853 0 1 1 1 
Si core 4.1449       11.782       4.4468 0 1 1 1 
Si core 19.4       4.6342       19.989 0 1 1 1 
Si core 14.723       10.505         7.56 0 1 1 1 
Si core 14.29       19.236      0.46867 0 1 1 1 
Si core 16.557       13.192       19.528 0 1 1 1 
Si core 12.436       12.592       16.133 0 1 1 1 
Si core 5.6889       0.9403       14.237 0 1 1 1 
Si core 2.0219       16.733       1.9002 0 1 1 1 
Si core 5.5282       5.9943        13.63 0 1 1 1 
Si core 8.2065       16.807       5.9101 0 1 1 1 
Si core 0.86886       13.543       19.566 0 1 1 1 
Si core 2.6559       10.715        6.146 0 1 1 1 
Si core 20.764       2.5776       12.235 0 1 1 1 
Si core 1.6642       11.189       17.507 0 1 1 1 
Si core 11.475       1.5275       13.628 0 1 1 1 
Si core 1.655      0.68701       19.018 0 1 1 1 
Si core 5.7588        11.43       11.947 0 1 1 1 
Si core 1.0827      5.5436      1.1886 0 1 1 1 
Si core 4.5296      8.7627      3.1211 0 1 1 1 
Si core 10.899        17.34       18.975 0 1 1 1 
Si core 6.0372       10.489         16.7 0 1 1 1 
Si core 1.216       17.014        20.74 0 1 1 1 
Si core 3.4468       13.305       1.6213 0 1 1 1 
Si core 15.702       20.858       12.781 0 1 1 1 
Si core 4.9551      5.0485     0.24523 0 1 1 1 
Si core 4.6801       16.423       11.095 0 1 1 1 
Si core 3.8501      5.1128      3.6252 0 1 1 1 
Si core 7.5948       2.2133       12.993 0 1 1 1 
Si core 2.8915      4.0197      1.7729 0 1 1 1 
Si core 9.3251        10.73       20.297 0 1 1 1 
Si core 12.829        16.38       15.758 0 1 1 1 
Si core 0.061439       7.7511       18.368 0 1 1 1 
Si core 6.0572       10.615       5.3889 0 1 1 1 
Si core 15.368       17.794       10.538 0 1 1 1 
Si core 14.777       17.294       1.9816 0 1 1 1 
Si core 12.731       20.463       19.085 0 1 1 1 
Si core 5.8213      8.5987      8.0939 0 1 1 1 
Si core 18.285       19.047       16.729 0 1 1 1 
Si core 10.312        6.673       20.352 0 1 1 1 
Si core 14.36       1.7474       14.727 0 1 1 1 
Si core 16.663       13.457       15.094 0 1 1 1 
Si core 9.2025       14.678       16.465 0 1 1 1 
Si core 6.209       12.957       18.226 0 1 1 1 
Si core 6.155       17.278       17.782 0 1 1 1 
Si core 3.7123      8.0517           0 0 1 1 1 
Si core 1.967       15.872        18.71 0 1 1 1 
Si core 5.6517        13.09       14.003 0 1 1 1 
Si core 10.782       7.0444           15 0 1 1 1 
Si core 10.768       8.9191       20.667 0 1 1 1 
Si core 1.2003       3.8532       15.424 0 1 1 1 
Si core 19.326       8.1864       4.4544 0 1 1 1 
Si core 20.886       19.885       5.2104 0 1 1 1 
Si core 19.323       16.404       11.541 0 1 1 1 
Si core 16.243       15.729        5.445 0 1 1 1 
Si core 19.298       10.972       6.1321 0 1 1 1 
Si core 5.6359       21.079       10.545 0 1 1 1 
Si core 17.037       12.244      0.48771 0 1 1 1 
Si core 20.938       18.225       14.242 0 1 1 1 
Si core 13.955       1.8851       10.445 0 1 1 1 
Si core 4.9963       4.1206       16.372 0 1 1 1 
Si core 6.4209       6.9118       11.494 0 1 1 1 
Si core 18.561       2.0943       11.455 0 1 1 1 
Si core 6.9794      3.3955      2.7004 0 1 1 1 
Si core 14.307       16.233       4.1373 0 1 1 1 
Si core 11.719       17.088       8.7573 0 1 1 1 
Si core 19.471        8.681      0.40864 0 1 1 1 
Si core 2.4969       20.945       12.991 0 1 1 1 
Si core 18.667       17.762       20.733 0 1 1 1 
Si core 7.7097       11.465        6.938 0 1 1 1 
Si core 3.5248       10.484      0.40109 0 1 1 1 
Si core 18.45       12.883        3.417 0 1 1 1 
Si core 18.448        4.491         10.4 0 1 1 1 
Si core 1.0158        15.99       8.7152 0 1 1 1 
Si core 19.97       13.265       5.0494 0 1 1 1 
Si core 4.9519      2.4343      1.7975 0 1 1 1 
Si core 15.73       3.5986       10.885 0 1 1 1 
Si core 1.8589       7.6249       10.176 0 1 1 1 
Si core 14.286       4.1242       2.9654 0 1 1 1 
Si core 0.93792       12.342       4.4918 0 1 1 1 
Si core 1.7506       19.224       11.164 0 1 1 1 
Si core 10.613       4.9697       1.7022 0 1 1 1 
Si core 2.7177       20.567       21.028 0 1 1 1 
Si core 12.54       5.8953       2.7843 0 1 1 1 
Si core 14.02       14.562       13.529 0 1 1 1 
Si core 14.413       10.097       10.775 0 1 1 1 
Si core 10.112       5.0967       4.9367 0 1 1 1 
Si core 14.5       18.765       19.239 0 1 1 1 
Si core 4.9412        20.38       12.718 0 1 1 1 
Si core 5.9321       6.4252         18.1 0 1 1 1 
Si core 15.83       15.354       20.015 0 1 1 1 
Si core 1.0283       18.993       16.055 0 1 1 1 
Si core 0.13228       5.9217       16.457 0 1 1 1 
Si core 15.995       15.456        10.05 0 1 1 1 
Si core 6.3436       14.006       20.501 0 1 1 1 
Si core 7.3851      5.0949      8.4722 0 1 1 1 
Si core 13.327       18.297        14.02 0 1 1 1 
Si core 8.5478       6.0899       10.529 0 1 1 1 
Si core 3.4192       15.988       9.0729 0 1 1 1 
Si core 7.5999      3.1132      9.9061 0 1 1 1 
Si core 18.351       16.995       5.1391 0 1 1 1 
Si core 9.7557       17.156       10.262 0 1 1 1 
Si core 7.0592     0.89095      8.3772 0 1 1 1 
Si core 2.6106       5.6715       11.227 0 1 1 1 
Si core 5.7496       12.191        2.361 0 1 1 1 
Si core 5.5082       3.4775       10.909 0 1 1 1 
Si core 3.1827       18.353       20.357 0 1 1 1 
Si core 3.5378       13.526       9.0557 0 1 1 1 
Si core 16.306        11.89       9.3201 0 1 1 1 
Si core 15.617       5.7184       1.7309 0 1 1 1 
Si core 16.881       2.9363       7.4634 0 1 1 1 
Si core 13.058       17.223       18.069 0 1 1 1 
Si core 13.891       17.357       7.6025 0 1 1 1 
Si core 4.2488       17.331       14.861 0 1 1 1 
Si core 15.835       16.948       16.768 0 1 1 1 
Si core 4.3336       15.406       19.673 0 1 1 1 
Si core 8.1175       6.8608       15.177 0 1 1 1 
Si core 9.3955      1.9639      4.3652 0 1 1 1 
Si core 8.7546      6.1439       3.141 0 1 1 1 
Si core 16.009      0.90739       17.692 0 1 1 1 
Si core 8.4097       6.112      0.4751 0 1 1 1 
Si core 11.604       3.0669       5.2458 0 1 1 1 
Si core 14.017       1.2481        18.88 0 1 1 1 
Si core 11.73       10.463       17.044 0 1 1 1 
Si core 15.843       2.0284       2.9076 0 1 1 1 
Si core 18.665       17.943       2.9237 0 1 1 1 
Si core 10.074       8.0253        11.87 0 1 1 1 
Si core 3.9184       18.445       18.116 0 1 1 1 
Si core 15.36       11.607       18.247 0 1 1 1 
Si core 13.551       5.9281        6.816 0 1 1 1 
Si core 15.75       18.323        13.11 0 1 1 1 
Si core 11.878       3.7303       20.879 0 1 1 1 
Si core 13.611       7.9611       9.9465 0 1 1 1 
Si core 16.262       10.196       2.0446 0 1 1 1 
Si core 0.1098      0.62086       13.471 0 1 1 1 
Si core 16.906       17.642        7.924 0 1 1 1 
Si core 11.231       14.532       15.272 0 1 1 1 
Si core 8.2539       16.902       16.652 0 1 1 1 
Si core 11.122       17.963       0.1725 0 1 1 1 
Si core 2.4342      6.7687      7.7996 0 1 1 1 
Si core 19.165       3.7733       2.3295 0 1 1 1 
Si core 13.127       7.0709       18.438 0 1 1 1 
Si core 17.42       17.491       15.049 0 1 1 1 
Si core 20.777       18.611       20.168 0 1 1 1 
Si core 18.159     0.014679        8.079 0 1 1 1 
Si core 0.82783       7.1379        14.42 0 1 1 1 
Si core 20.896       12.054      0.76031 0 1 1 1 
Si core 8.8269      7.1188      6.7161 0 1 1 1 
Si core 5.739       9.1257       10.659 0 1 1 1 
Si core 8.0171       15.817       9.2908 0 1 1 1 
Si core 18.359       2.1486       5.7445 0 1 1 1 
Si core 5.4254      8.3076      5.5846 0 1 1 1 
Si core 15.265       13.254       11.095 0 1 1 1 
Si core 4.9145      6.2575      8.0763 0 1 1 1 
Si core 10.199       18.367       7.2446 0 1 1 1 
Si core 16.815       13.223       7.3256 0 1 1 1 
Si core 1.7027      1.9637      2.4007 0 1 1 1 
Si core 7.1376       10.209       13.514 0 1 1 1 
Si core 17.723       7.1828       20.197 0 1 1 1 
Si core 8.7131      0.92694       16.438 0 1 1 1 
Si core 4.3693       10.511       7.9386 0 1 1 1 
Si core 17.758       21.066       4.6928 0 1 1 1 
Si core 11.47       2.8753       7.5475 0 1 1 1 
Si core 4.0854       18.039       5.8077 0 1 1 1 
Si core 17.018       1.7512        9.578 0 1 1 1 
Si core 3.9819       11.609       18.623 0 1 1 1 
Si core 4.9895       17.454       3.7815 0 1 1 1 
Si core 5.2646      0.87664       18.206 0 1 1 1 
Si core 6.4073       8.8521       18.439 0 1 1 1 
Si core 3.9341       9.1198       18.799 0 1 1 1 
Si core 20.57       10.124       17.913 0 1 1 1 
Si core 8.0233      2.5195     0.43113 0 1 1 1 
Si core 17.817       9.9123        9.695 0 1 1 1 
Si core 8.442       12.636       17.406 0 1 1 1 
Si core 14.615       19.523       8.5894 0 1 1 1 
Si core 11.54       20.125       5.7432 0 1 1 1 
Si core 10.505       16.886        2.818 0 1 1 1 
Si core 5.8518       15.503        14.97 0 1 1 1 
Si core 12.676        6.088       20.547 0 1 1 1 
Si core 8.815       2.9504       14.888 0 1 1 1 
Si core 17.717       1.3051       1.4909 0 1 1 1 
Si core 7.2621       17.871       4.0909 0 1 1 1 
Si core 13.385      0.55627       12.409 0 1 1 1 
Si core 11.823       1.1392       2.2204 0 1 1 1 
Si core 4.8341       16.375       7.2715 0 1 1 1 
Si core 20.574       11.825       13.521 0 1 1 1 
Si core 6.7829       14.915       11.068 0 1 1 1 
Si core 20.855       16.266       17.303 0 1 1 1 
Si core 1.4594       10.726       20.245 0 1 1 1 
Si core 15.756       20.981       10.304 0 1 1 1 
Si core 19.573       20.011       13.365 0 1 1 1 
Si core 19.375       21.023       10.977 0 1 1 1 
Si core 6.155       20.486         2.32 0 1 1 1 
Si core 7.0844       4.3977       20.433 0 1 1 1 
Si core 15.822       18.627       5.5881 0 1 1 1 
Si core 17.224       9.7971       18.282 0 1 1 1 
Si core 9.3235        14.27       1.5069 0 1 1 1 
Si core 9.3773       2.7455           18 0 1 1 1 
Si core 19.369      0.47505       3.0156 0 1 1 1 
Si core 18.234       10.539       3.4499 0 1 1 1 
Si core 13.364       2.6225       1.2285 0 1 1 1 
Si core 5.0696      2.0147      7.6656 0 1 1 1 
Si core 11.627       14.781        8.207 0 1 1 1 
Si core 6.1306     0.59046       5.368 0 1 1 1 
Si core 0.11254       15.346       2.2651 0 1 1 1 
Si core 12.894       17.699       5.4654 0 1 1 1 
Si core 8.2785       9.2759       10.236 0 1 1 1 
Si core 2.5486       17.296       16.619 0 1 1 1 
Si core 12.923       5.3638       12.281 0 1 1 1 
Si core 3.3846       11.084       11.893 0 1 1 1 
Si core 8.1617       10.944       15.686 0 1 1 1 
Si core 11.823       13.579       19.326 0 1 1 1 
Si core 19.064       8.4951       13.216 0 1 1 1 
Si core 8.6132       17.593     0.086359 0 1 1 1 
Si core 10.106       18.504       12.337 0 1 1 1 
Si core 20.371       9.8169       14.717 0 1 1 1 
Si core 5.1087       19.948       6.8573 0 1 1 1 
Si core 7.9201       8.0457       13.098 0 1 1 1 
Si core 18.293       20.887       15.196 0 1 1 1 
Si core 5.5348       7.3133        15.75 0 1 1 1 
Si core 7.5079       13.766       3.1623 0 1 1 1 
Si core 16.1       5.7114       18.888 0 1 1 1 
Si core 0       13.832        8.758 0 1 1 1 
Si core 13.85       19.374       3.6209 0 1 1 1 
Si core 6.0488       15.291       1.5437 0 1 1 1 
Si core 9.9726      1.0979      9.9137 0 1 1 1 
Si core 1.6915       12.891       13.966 0 1 1 1 
Si core 3.9196       1.9921       15.604 0 1 1 1 
Si core 16.218       15.606       1.1324 0 1 1 1 
Si core 4.248       12.292       15.882 0 1 1 1 
Si core 13.418       14.119       3.5237 0 1 1 1 
Si core 3.0089       10.794       14.417 0 1 1 1 
Si core 5.1147       17.258      0.13543 0 1 1 1 
Si core 10.771       10.307        6.453 0 1 1 1 
Si core 12.23       19.576       11.886 0 1 1 1 
Si core 18.64        12.87       12.478 0 1 1 1 
Si core 18.766       19.323         6.19 0 1 1 1 
Si core 13.239       9.4387       2.1814 0 1 1 1 
Si core 13.847       7.3424       1.0913 0 1 1 1 
Si core 13.557       15.532       19.624 0 1 1 1 
Si core 17.216       8.0172       8.3978 0 1 1 1 
Si core 0.42806      3.5136      8.3079 0 1 1 1 
Si core 8.8365       11.641       3.2609 0 1 1 1 
Si core 0.074361        20.53      0.42897 0 1 1 1 
Si core 1.4768       9.4574       15.619 0 1 1 1 
Si core 10.86       10.522       8.8432 0 1 1 1 
dispersion 0.0 0.0 0.0 to 0.0 0.0 0.0
