
#--------------------------------------------------------------------------
#input structure
#--------------------------------------------------------------------------
units		metal
atom_style	atomic
read_data	IN.X0
#--------------------------------------------------------------------------
#si potentials
#--------------------------------------------------------------------------
pair_style      sw
pair_coeff      * * Si.sw Si
#--------------------------------------------------------------------------
#variables
#--------------------------------------------------------------------------
variable   	dt 		equal 0.0005
#--------------------------------------------------------------------------

#--------------------------------------------------------------------------
#SED parameters
#--------------------------------------------------------------------------
variable	w_step		equal T_STEP		
variable	w_total		equal T_FFT
variable	t_total		equal T_TOTAL
variable	num_ffts	equal ${t_total}/${w_total}


##########SEED##########################################################
variable iseed equal ISEED_TMP
variable seed equal SEED_TMP

#--------------------------------------------------------------------------
variable 	T_run 		equal 300
#--------------------------------------------------------------------------

log 	log_heat_${iseed}.lammps

#--------------------------------------------------------------------------
#nve rescale
#--------------------------------------------------------------------------
	velocity 		all create ${T_run} ${seed} rot yes dist gaussian
	fix 			1 all nve
	fix 			2 all temp/rescale 1 ${T_run} ${T_run} 0.01 1.0
	timestep		${dt}
	thermo_style  	custom step temp press etotal vol
	thermo			1000
	run             	100000	
#	run             	1000
	unfix 			1
	unfix 			2
#--------------------------------------------------------------------------
#nve
#--------------------------------------------------------------------------
	fix 			1 all nve
	timestep		${dt}
	thermo_style  	custom step temp press etotal vol
	thermo			1000
	run             	200000	
#	run             	10000
	unfix 			1
#--------------------------------------------------------------------------
#sed
#--------------------------------------------------------------------------
label loop_fft
variable ifft loop ${num_ffts}

log 	log_SED_${iseed}_${ifft}.lammps
	reset_timestep  	0
	fix 			1 all nve
	dump 			vel all custom ${w_step} dump_${iseed}_${ifft}.vel vx vy vz
	dump_modify 		vel sort id
	thermo_style 		custom step temp press vol
	thermo			5000
	timestep		${dt}
	run			${w_total}
	unfix			1
	undump			vel

next ifft
jump LMP_TMP loop_fft

