phon dispersion optimize

output freq text freq.gout
output xyz

###########################################################################
#------------------------Tersoff-------------------------------------------
###########################################################################
#botwobody
#Si core Si core 1830.8 471.18 2.4799 1.7322 2.70 3.00
#borepulsive
#Si core Si core 0.0 3 0.78734 1.7322 2.70 3.00
#boattractive theta
#Si core Si core 0.0000010999 3 0.78734 1.7322 100390.0 16.218 -0.59826 2.70 3.00

botwobody
C core C core 1393.6 346.7 3.4879 2.2119 1.80 2.10
borepulsive
C core 0.0 3 0.72751 2.2119 1.80 2.10
boattractive theta
C core 0.00000015724 3 0.72751 2.2119 38049.0 4.384 -0.57058 1.80 2.10

#--------------------------------------------------------------------------
#x0
#--------------------------------------------------------------------------
cell 100.0 100.0 100.0 90.0 90.0 90.0 0 0 0 0 0 0
cart
C	core	-3.55512	-5.37724	1.02576	0	1	1	1
C	core	-3.25472	-4.67863	2.30718	0	1	1	1
C	core	-3.90933	-3.54012	2.71997	0	1	1	1
C	core	-3.1955	-2.53719	3.47462	0	1	1	1
C	core	-1.8542	-2.70979	3.79673	0	1	1	1
C	core	-1.16542	-3.88893	3.34335	0	1	1	1
C	core	-1.85406	-4.83326	2.59431	0	1	1	1
C	core	0.93228	0.16872	0.50909	0	1	1	1
C	core	0.58962	-0.01883	1.9038	0	1	1	1
C	core	1.06553	-1.32426	2.30942	0	1	1	1
C	core	0.18641	-3.51552	2.97201	0	1	1	1
C	core	0.32636	-2.09204	3.19521	0	1	1	1
C	core	-0.9343	-1.59313	3.70689	0	1	1	1
C	core	-1.39313	-0.34781	3.3084	0	1	1	1
C	core	-0.6139	0.46065	2.39531	0	1	1	1
C	core	-2.79208	-0.16671	2.97977	0	1	1	1
C	core	-3.67114	-1.2327	3.06228	0	1	1	1
C	core	-4.56817	-4.61402	0.05076	0	1	1	1
C	core	-5.0771	-3.30625	0.54762	0	1	1	1
C	core	-4.84255	-2.83798	1.82018	0	1	1	1
C	core	-4.68207	-1.42095	2.04222	0	1	1	1
C	core	-4.77042	-0.52006	0.98676	0	1	1	1
C	core	-4.99319	-1.01494	-0.34577	0	1	1	1
C	core	-5.11786	-2.38217	-0.55264	0	1	1	1
C	core	0.05428	0.82773	-0.33409	0	1	1	1
C	core	-1.20372	1.33518	0.17573	0	1	1	1
C	core	-2.21141	1.1444	-0.84703	0	1	1	1
C	core	-4.21639	-0.20997	-1.26909	0	1	1	1
C	core	-3.50521	0.78793	-0.49549	0	1	1	1
C	core	-3.84734	0.59451	0.89989	0	1	1	1
C	core	-2.87791	0.76645	1.87453	0	1	1	1
C	core	-1.53238	1.15296	1.51015	0	1	1	1
C	core	-2.2195	-5.69059	0.44651	0	1	1	1
C	core	-1.9049	-5.49359	-0.88013	0	1	1	1
C	core	-0.56556	-5.1028	-1.25176	0	1	1	1
C	core	0.41608	-4.92453	-0.28405	0	1	1	1
C	core	0.08011	-5.1038	1.1039	0	1	1	1
C	core	-1.21753	-5.45395	1.45147	0	1	1	1
C	core	1.62544	-1.0202	0.05535	0	1	1	1
C	core	1.71085	-1.94269	1.16918	0	1	1	1
C	core	0.79667	-4.10903	1.87972	0	1	1	1
C	core	1.57686	-3.3074	0.9587	0	1	1	1
C	core	1.34095	-3.81237	-0.37933	0	1	1	1
C	core	1.24847	-2.92631	-1.44031	0	1	1	1
C	core	1.40292	-1.50447	-1.22438	0	1	1	1
C	core	0.23132	-3.1174	-2.45441	0	1	1	1
C	core	-0.65351	-4.17825	-2.36303	0	1	1	1
C	core	-4.04708	-4.32125	-1.3138	0	1	1	1
C	core	-2.84051	-4.79377	-1.78156	0	1	1	1
C	core	-2.05267	-3.98789	-2.68479	0	1	1	1
C	core	-2.50048	-2.7374	-3.094	0	1	1	1
C	core	-3.74871	-2.23257	-2.58485	0	1	1	1
C	core	-4.48409	-3.00407	-1.69609	0	1	1	1
C	core	-0.17553	0.32283	-1.67223	0	1	1	1
C	core	-1.57572	0.51377	-1.98619	0	1	1	1
C	core	-3.60831	-0.80586	-2.36142	0	1	1	1
C	core	-2.25895	-0.43413	-2.73102	0	1	1	1
C	core	-1.57371	-1.62693	-3.18622	0	1	1	1
C	core	-0.23585	-1.81255	-2.87541	0	1	1	1
C	core	0.48195	-0.81577	-2.10978	0	1	1	1

#--------------------------------------------------------------------------
#kpt
#--------------------------------------------------------------------------
kpoint
0.0 0.0 0.0
