grad conv noauto 

name ACBUOL

title
GULP calculation from Materials Studio for ACBUOL
end

cartesian
C1 core -5.235690 3.027470 5.281190  0.273390 1.000000 0.0 
C1 core -6.309360 3.971350 5.257500  0.042670 1.000000 0.0 
C1 core -7.293730 3.820330 4.239150 -0.058730 1.000000 0.0 
C1 core -7.236560 2.799420 3.264140  0.136540 1.000000 0.0 
C1 core -6.192170 1.863810 3.341870 -0.149070 1.000000 0.0 
C1 core -5.205460 1.979500 4.329890 -0.128290 1.000000 0.0 
O1 core -4.236000 3.126620 6.209880 -0.607780 1.000000 0.0 
C2 core -3.038920 2.341520 6.360260  0.023820 1.000000 0.0 
C2 core -2.133560 2.862570 7.503790  0.107420 1.000000 0.0 
O2 core -1.799440 4.228930 7.262670 -0.683970 1.000000 0.0 
C2 core -2.762500 2.699610 8.910460 -0.173980 1.000000 0.0 
H1 core -3.691930 3.265520 8.957900  0.179730 1.000000 0.0 
N1 core -1.822070 3.176780 9.951160 -0.660120 1.000000 0.0 
C2 core -2.282810 3.105900 11.36244 -0.078730 1.000000 0.0 
C2 core -1.038330 3.160350 12.28296 -0.407900 1.000000 0.0 
C2 core -3.271590 4.251750 11.70452 -0.385130 1.000000 0.0 
C1 core -6.452770 5.050790 6.178410  0.320240 1.000000 0.0 
O3 core -7.513800 5.723410 6.201580 -0.504150 1.000000 0.0 
C2 core -5.434420 5.496890 7.155240 -0.288820 1.000000 0.0 
N2 core -8.138620 2.632650 2.261780 -0.511750 1.000000 0.0 
C1 core -8.861550 3.575600 1.605760  0.461400 1.000000 0.0 
O3 core -8.722610 4.803430 1.819260 -0.481240 1.000000 0.0 
C2 core -9.825040 3.158560 0.562770 -0.193740 1.000000 0.0 
C2 core -11.293410 3.54982 0.880180 -0.290800 1.000000 0.0 
C2 core -11.869260 2.85488 2.135730 -0.427690 1.000000 0.0 
H1 core -8.085960 4.462750 4.203630  0.208420 1.000000 0.0 
H1 core -6.135000 1.093850 2.669370  0.120090 1.000000 0.0 
H1 core -4.458510 1.283600 4.341170  0.107260 1.000000 0.0 
H1 core -3.304860 1.299280 6.553430  0.081650 1.000000 0.0 
H1 core -2.471730 2.385710 5.426600  0.143470 1.000000 0.0 
H1 core -1.200560 2.292070 7.479530  0.144060 1.000000 0.0 
H2 core -2.650440 4.711920 7.305490  0.358710 1.000000 0.0 
H1 core -2.987940 1.644580 9.085030  0.120430 1.000000 0.0 
H2 core -0.972250 2.613790 9.870930  0.249070 1.000000 0.0 
H2 core -1.572240 4.146290 9.744380  0.299990 1.000000 0.0 
H1 core -2.780480 2.147260 11.54066  0.184970 1.000000 0.0 
H1 core -0.362650 2.334580 12.05034  0.133080 1.000000 0.0 
H1 core -0.499380 4.100680 12.14687  0.157960 1.000000 0.0 
H1 core -1.333970 3.073500 13.33081  0.134070 1.000000 0.0 
H1 core -2.820110 5.222500 11.48986  0.152630 1.000000 0.0 
H1 core -3.542560 4.217090 12.76175  0.131440 1.000000 0.0 
H1 core -4.187700 4.155940 11.12082  0.134650 1.000000 0.0 
H1 core -5.743590 6.405560 7.678220  0.146980 1.000000 0.0 
H1 core -4.495700 5.711840 6.643500  0.125630 1.000000 0.0 
H1 core -5.282020 4.723470 7.905860  0.119090 1.000000 0.0 
H2 core -8.258550 1.720640 1.952440  0.204070 1.000000 0.0 
H1 core -9.532370 3.630600 -0.37864  0.128350 1.000000 0.0 
H1 core -9.775840 2.076960 0.408830  0.095710 1.000000 0.0 
H1 core -11.914640 3.275470 0.02320  0.141400 1.000000 0.0 
H1 core -11.367740 4.633480 1.00589  0.192750 1.000000 0.0 
H1 core -12.915530 3.137760 2.26610  0.143350 1.000000 0.0 
H1 core -11.812290 1.769920 2.02930  0.148290 1.000000 0.0 
H1 core -11.316100 3.154630 3.02770  0.179140 1.000000 0.0 

Species
C2 core C_3
C1 core C_R
H1 core H_
H2 core H___A
N1 core N_3
N2 core N_R
O3 core O_2
O2 core O_3
O1 core O_R

connect 1 2 resonant  0 0 0
connect 1 6 resonant  0 0 0
connect 1 7 single  exocyclic 0 0 0
connect 2 3 resonant  0 0 0
connect 2 17 single  exocyclic 0 0 0
connect 3 4 resonant  0 0 0
connect 3 26 single  0 0 0
connect 4 5 resonant  0 0 0
connect 4 20 single  exocyclic 0 0 0
connect 5 6 resonant  0 0 0
connect 5 27 single  0 0 0
connect 6 28 single  0 0 0
connect 7 8 single  0 0 0
connect 8 9 single  0 0 0
connect 8 29 single  0 0 0
connect 8 30 single  0 0 0
connect 9 10 single  0 0 0
connect 9 11 single  0 0 0
connect 9 31 single  0 0 0
connect 10 32 single  0 0 0
connect 11 12 single  0 0 0
connect 11 13 single  0 0 0
connect 11 33 single  0 0 0
connect 13 14 single  0 0 0
connect 13 34 single  0 0 0
connect 13 35 single  0 0 0
connect 14 15 single  0 0 0
connect 14 16 single  0 0 0
connect 14 36 single  0 0 0
connect 15 37 single  0 0 0
connect 15 38 single  0 0 0
connect 15 39 single  0 0 0
connect 16 40 single  0 0 0
connect 16 41 single  0 0 0
connect 16 42 single  0 0 0
connect 17 18 double  0 0 0
connect 17 19 single  0 0 0
connect 19 43 single  0 0 0
connect 19 44 single  0 0 0
connect 19 45 single  0 0 0
connect 20 21 single  0 0 0
connect 20 46 single  0 0 0
connect 21 22 double  0 0 0
connect 21 23 single  0 0 0
connect 23 24 single  0 0 0
connect 23 47 single  0 0 0
connect 23 48 single  0 0 0
connect 24 25 single  0 0 0
connect 24 49 single  0 0 0
connect 24 50 single  0 0 0
connect 25 51 single  0 0 0
connect 25 52 single  0 0 0
connect 25 53 single  0 0 0

library dreiding

output arc example50
output phonon example50
output frc example50
