fit conp mole 
title
Example of fitting to the eigenvectors from an ab initio 
calculation on water at the M06/6-31+G** level.
end
cart
O       0.000000     0.000000     0.116017
H      -0.765956     0.000000    -0.465068
H       0.765956     0.000000    -0.464068
observables
mode 
1609.54 0.1 
    0.000  0.000 -0.071 
   -0.426  0.000  0.562 
    0.426  0.000  0.562 
mode
3871.90 0.1
    0.000  0.000  0.050 
   -0.586  0.000 -0.394 
    0.586  0.000 -0.394 
end
harmonic bond
O core H core 5.93 1.012 0.0 1 1
three bond
O core H core H core 33.26136 113.24 1 1
dump every example48.res
