
#--------------------------------------------------------------------------
units			lj
atom_style		atomic
read_data		lmp.in.x0
#--------------------------------------------------------------------------
pair_style		lj/cut 2.5
pair_coeff		* * 1.0 1.0
pair_modify          	shift yes
#--------------------------------------------------------------------------
	fix			1 all nve
	dump 			force all custom 1 lmp.dump.force x y z
	dump_modify 		force sort id
	run	1
