molecule connectivity bond angle torsion phon #optimise

output lammps

#########################################################################################
#-------------------------Organic Molecule Harm/Cov Potential---------------------------------------------------
#########################################################################################

#three-body cosine intra bond single
##C core H core H core 4.8770 109.471
##C core H core C core 4.8770 109.471
#C core C core C core 5.3880 109.471
#C core S core C core 5.3880 114.400

#ryckaert 5 bond single
#S core C core C core C core 0.09617 
#-0.125988 -0.13598 0.0317 0.27196 0.32642
#C core C core C core C core 0.09617 
#-0.125988 -0.13598 0.0317 0.27196 0.32642

#harmonic intra bond single
##C core H core 30.3503 1.09
#C core C core 22.54 1.54 
#C core S core 19.08 1.815

lennard epsilon zero 12 6 intra x13
C core C core 0.00513 3.914 0 10.0
C core S core 0.0075 3.732 0.0 10.0
S core S core 0.01724 4.250 0.0 10.0

#connect 1 2 single 0 0  
#connect 2 3 single 0 0
#connect 3 4 single 0 0
#connect 4 5 single 0 0
#connect 5 6 single 0 0
#connect 6 7 single 0 0
#connect 7 8 single 0 0 
#connect 8 9 single 0 0
#connect 9 10 single 0 0
#connect 10 11 single 0 0
#connect 11 12 single 0 0

#########################################################################################
#------------------------Cubic FCC-------------------------------------------------------
#########################################################################################

#Relax_1: Equilibrium
cell  30 30 150 90.0 90.0 90.0 0 0 0 0 0 0
cart

S1 1.442498 4.996959 56.537346 0 1 1 1
C1 1.442498 5.898313 58.112715 0 1 1 1 
C1 1.442498 4.996959 59.361379 0 1 1 1 
C1 1.442498 5.886081 60.618782  0 1 1 1
C1 1.442498 4.996959 61.876185  0 1 1 1
C1 1.442498 5.886081 63.133588  0 1 1 1
C1 1.442498 4.996959 64.390991  0 1 1 1
C1 1.442498 5.886081 65.648394  0 1 1 1
C1 1.442498 4.996959 66.905797  0 1 1 1
C1 1.442498 5.886081 68.163200  0 1 1 1
C1 1.442498 4.996959 69.411864  0 1 1 1
S1 1.442498 5.898313 70.987233  0 1 1 1

 
